\ Model Cl_50_Ins_1.lp
\ LP format - for model browsing. Use MPS format to capture full model detail.
Maximize
 
Subject To
 obj1: y[0] = 0
 obj2: y[1] = 0
 obj1_Exp: - y[0] + 97 x[0] + 95 x[1] + 93 x[2] + 92 x[3] + 83 x[4]
   + 83 x[5] + 82 x[6] + 79 x[7] + 79 x[8] + 79 x[9] + 76 x[10] + 74 x[11]
   + 73 x[12] + 64 x[13] + 63 x[14] + 62 x[15] + 61 x[16] + 61 x[17]
   + 58 x[18] + 55 x[19] + 54 x[20] + 54 x[21] + 53 x[22] + 51 x[23]
   + 49 x[24] + 46 x[25] + 39 x[26] + 38 x[27] + 38 x[28] + 37 x[29]
   + 37 x[30] + 35 x[31] + 34 x[32] + 29 x[33] + 27 x[34] + 26 x[35]
   + 22 x[36] + 21 x[37] + 21 x[38] + 21 x[39] + 20 x[40] + 19 x[41]
   + 17 x[42] + 13 x[43] + 13 x[44] + 9 x[45] + 8 x[46] + 6 x[47] + 5 x[48]
   + 3 x[49] = 0
 obj2_Exp: - y[1] + 66 x[0] + 17 x[1] + 97 x[2] + 79 x[3] + 30 x[4]
   + 17 x[5] + 28 x[6] + 75 x[7] + 12 x[8] + 42 x[9] + 56 x[10] + 87 x[11]
   + 27 x[12] + 59 x[13] + 59 x[14] + 87 x[15] + 7 x[16] + 11 x[17]
   + 98 x[18] + 38 x[19] + 20 x[20] + 90 x[21] + 39 x[22] + 75 x[23]
   + 77 x[24] + 80 x[25] + 80 x[26] + 67 x[27] + 27 x[28] + 23 x[29]
   + 84 x[30] + 10 x[31] + 15 x[32] + 34 x[33] + 95 x[34] + 6 x[35]
   + 39 x[36] + 87 x[37] + 49 x[38] + 61 x[39] + 5 x[40] + 71 x[41]
   + 84 x[42] + 47 x[43] + 18 x[44] + 23 x[45] + 42 x[46] + 22 x[47]
   + 59 x[48] + 22 x[49] = 0
 Budget: 107 x[0] + 105 x[1] + 103 x[2] + 102 x[3] + 93 x[4] + 93 x[5]
   + 92 x[6] + 89 x[7] + 89 x[8] + 89 x[9] + 86 x[10] + 84 x[11] + 83 x[12]
   + 74 x[13] + 73 x[14] + 72 x[15] + 71 x[16] + 71 x[17] + 68 x[18]
   + 65 x[19] + 64 x[20] + 64 x[21] + 63 x[22] + 61 x[23] + 59 x[24]
   + 56 x[25] + 49 x[26] + 48 x[27] + 48 x[28] + 47 x[29] + 47 x[30]
   + 45 x[31] + 44 x[32] + 39 x[33] + 37 x[34] + 36 x[35] + 32 x[36]
   + 31 x[37] + 31 x[38] + 31 x[39] + 30 x[40] + 29 x[41] + 27 x[42]
   + 23 x[43] + 23 x[44] + 19 x[45] + 18 x[46] + 16 x[47] + 15 x[48]
   + 13 x[49] <= 721
Bounds
Binaries
 x[0] x[1] x[2] x[3] x[4] x[5] x[6] x[7] x[8] x[9] x[10] x[11] x[12] x[13]
 x[14] x[15] x[16] x[17] x[18] x[19] x[20] x[21] x[22] x[23] x[24] x[25]
 x[26] x[27] x[28] x[29] x[30] x[31] x[32] x[33] x[34] x[35] x[36] x[37]
 x[38] x[39] x[40] x[41] x[42] x[43] x[44] x[45] x[46] x[47] x[48] x[49]
Generals
 y[0] y[1]
End
